3 
4  50 
5  05 20 33 40 48 55 
6  05 12 20 27 35 42 50 57 
7  05 12 20 27 35 42 50 57 
8  05 12 20 27 35 42 50 57 
9  05 12 20 27 39 46 54 
10  01 09 16 24 31 39 46 54 
11  01 09 16 24 31 39 46 54 
12  01 09 16 24 31 39 46 54 
13  01 09 16 24 31 39 46 54 
14  01 09 16 24 31 39 50 58 
15  05 12 20 28 35 43 50 58 
16  05 13 20 28 35 43 50 58 
17  05 13 20 28 35 44 50 59 
18  05 14 20 29 35 43 54 
19  01 09 16 24 31 41 51 59 
20  07 21 35 50 
21  05 20 35 50 
22  01 16 31 46 
23  06 
0 
